10
1 0 58
2 0 19
2 1 73
3 0 65
3 1 28
3 2 15
4 0 58
4 1 58
4 2 62
4 3 28
5 0 16
5 1 12
5 2 69
5 3 1
5 4 31
6 0 80
6 1 6
6 2 7
6 3 15
6 4 33
6 5 69
7 0 69
7 1 20
7 2 26
7 3 26
7 4 9
7 5 68
7 6 53
8 0 73
8 1 36
8 2 6
8 3 43
8 4 6
8 5 58
8 6 15
8 7 64
9 0 38
9 1 35
9 2 69
9 3 65
9 4 71
9 5 67
9 6 50
9 7 27
9 8 78
